data/benchmarks/bayes/75-10-2-q.cnf
p cnf 460 461
c weights 0.344598 0.655402 1 1 1 1 1 1 1 1 1 1 1 1 1 1 1 1 1 1 1 1 1 1 1 1 1 1 1 1 1 1 1 1 1 1 1 1 1 1 1 1 1 1 1 1 1 1 1 1 1 1 1 1 1 1 1 1 1 1 1 1 1 1 1 1 1 1 1 1 1 1 1 1 1 1 1 1 1 1 1 1 1 1 1 1 1 1 1 1 1 1 1 1 1 1 1 1 1 1 1 1 1 1 1 1 1 1 1 1 1 1 1 1 1 1 1 1 1 1 1 1 1 1 1 1 1 1 1 1 1 1 1 1 1 1 1 1 1 1 1 1 1 1 1 1 1 1 1 1 1 1 1 1 1 1 1 1 1 1 1 1 1 1 1 1 1 1 1 1 1 1 1 1 1 1 1 1 1 1 1 1 1 1 1 1 1 1 1 1 1 1 1 1 1 1 1 1 1 1 0.5 0.5 0.5 0.5 0.5 0.5 0.5 0.5 0.959413 0.04058700000000004 0.487659 0.5123409999999999 0.5 0.5 0.5 0.5 0.5 0.5 0.5 0.5 0.5 0.5 0.5 0.5 0.5 0.5 0.5 0.5 0.5 0.5 0.5 0.5 0.5 0.5 0.5 0.5 0.692777 0.307223 0.915637 0.08436299999999997 0.947341 0.05265900000000001 0.854789 0.14521099999999998 0.139232 0.860768 0.0398961 0.9601039 0.5 0.5 0.5 0.5 0.5 0.5 0.5 0.5 0.5 0.5 0.5 0.5 0.5 0.5 0.5 0.5 0.5 0.5 0.5 0.5 0.5 0.5 0.5 0.5 0.5 0.5 0.5 0.5 0.5 0.5 0.5 0.5 0.5 0.5 0.5 0.5 0.5 0.5 0.5 0.5 0.5 0.5 0.5 0.5 0.5 0.5 0.5 0.5 0.628961 0.371039 0.280291 0.7197089999999999 0.383826 0.616174 0.899308 0.100692 0.5 0.5 0.5 0.5 0.5 0.5 0.5 0.5 0.5 0.5 0.5 0.5 0.5 0.5 0.5 0.5 0.5 0.5 0.5 0.5 0.5 0.5 0.5 0.5 0.5 0.5 0.5 0.5 0.5 0.5 0.5 0.5 0.5 0.5 0.5 0.5 0.5 0.5 0.5 0.5 0.5 0.5 0.5 0.5 0.5 0.5 0.5 0.5 0.5 0.5 0.5 0.5 0.482969 0.517031 0.916113 0.08388700000000004 0.810689 0.189311 0.0536192 0.9463808 0.5 0.5 0.5 0.5 0.5 0.5 0.5 0.5 0.5 0.5 0.5 0.5 0.5 0.5 0.5 0.5 0.5 0.5 0.5 0.5 0.5 0.5 0.5 0.5 0.5 0.5 0.5 0.5 0.345141 0.6548590000000001 0.996397 0.003603000000000023 0.299488 0.700512 0.878094 0.12190599999999996 0.5 0.5 0.5 0.5 0.5 0.5 0.5 0.5 0.5 0.5 0.5 0.5 0.5 0.5 0.5 0.5 0.5 0.5 0.5 0.5 0.5 0.5 0.5 0.5 0.5 0.5 0.5 0.5 0.5 0.5 0.5 0.5 0.495808 0.504192 0.0167717 0.9832282999999999 0.160605 0.839395 0.0371914 0.9628086 0.505746 0.49425399999999997 0.0335883 0.9664117 0.105823 0.894177 0.38384 0.61616 0.5 0.5 0.5 0.5 0.5 0.5 0.5 0.5 0.5 0.5 0.5 0.5 0.5 0.5 0.5 0.5 0.5 0.5 0.5 0.5 0.246061 0.753939 0.34557 0.6544300000000001 0.449924 0.550076 0.635421 0.364579 0.5 0.5 0.5 0.5 0.5 0.5 0.5 0.5 0.479881 0.520119 0.569922 0.43007799999999996 0.948898 0.05110199999999998 0.286216 0.713784 0.5 0.5 0.5 0.5 0.5 0.5 0.5 0.5 0.536455 0.463545 0.483276 0.516724 0.543225 0.45677500000000004 0.789478 0.210522 0.5 0.5 0.5 0.5 0.5 0.5 0.5 0.5 0.489293 0.510707 0.88106 0.11894000000000005 0.331005 0.668995 0.939216 0.06078399999999995 0.5 0.5 0.5 0.5 0.5 0.5 0.5 0.5 0.844086 0.155914 0.280262 0.719738 0.363179 0.6368210000000001 0.792983 0.207017 0.5 0.5 0.5 0.5 0.958517 0.04148300000000005 0.898355 0.10164499999999999 0.142264 0.857736 0.819502 0.18049800000000005 0.5 0.5 0.5 0.5 0.5 0.5 0.5 0.5 0.5 0.5 0.5 0.5 0.5 0.5 0.5 0.5 0.5 0.5 0.5 0.5 0.5 0.5 0.5 0.5 0.5 0.5 0.5 0.5 0.5 0.5 0.5 0.5 0.5 0.5 0.5 0.5 0.5 0.5 0.5 0.5 0.989633 0.010367000000000015 0.755836 0.24416400000000005 0.850779 0.14922100000000005 0.131897 0.8681030000000001 0.5 0.5 0.5 0.5 0.5 0.5 0.5 0.5 0.5 0.5 0.5 0.5 0.5 0.5 0.5 0.5 0.5 0.5 0.5 0.5 0.301202 0.698798 0.182901 0.817099 0.570365 0.429635 0.451399 0.548601 0.5 0.5 0.5 0.5 0.5 0.5 0.5 0.5 0.5 0.5 0.5 0.5 0.5 0.5 0.5 0.5 0.185971 0.814029 0.00722234 0.99277766 0.904332 0.09566799999999998 0.761309 0.238691 0.5 0.5 0.5 0.5 0.5 0.5 0.5 0.5 0.5 0.5 0.5 0.5 0.5 0.5 0.5 0.5 0.5 0.5 0.5 0.5 0.5 0.5 0.5 0.5 0.5 0.5 0.5 0.5 0.5 0.5 0.5 0.5 0.5 0.5 0.5 0.5 0.5 0.5 0.5 0.5 0.5 0.5 0.5 0.5 0.5 0.5 0.5 0.5 0.5 0.5 0.5 0.5 0.5 0.5 0.5 0.5 0.5 0.5 0.5 0.5 0.5 0.5 0.5 0.5 0.5 0.5 0.5 0.5 0.5 0.5 0.5 0.5 0.5 0.5 0.5 0.5 0.5 0.5 0.5 0.5 0.5 0.5 0.5 0.5 0.469455 0.530545 0.96544 0.034560000000000035 0.361058 0.638942 0.921512 0.078488 0.0618814 0.9381186 0.380792 0.619208 0.498522 0.501478 0.524013 0.47598700000000005 0.5 0.5 0.5 0.5 0.5 0.5 0.5 0.5 0.5 0.5 0.5 0.5 0.5 0.5 0.5 0.5 0.972291 0.027708999999999984 0.195119 0.804881 0.281881 0.718119 0.277366 0.722634 0.623826 0.376174 0.0433709 0.9566291 0.5 0.5 0.5 0.5 0.5 0.5 0.5 0.5 0.5 0.5 0.5 0.5 0.5 0.5 0.5 0.5 0.83653 0.16347 0.355849 0.6441509999999999 0.670102 0.329898 0.522049 0.477951 0.5 0.5 0.5 0.5 0.5 0.5 0.5 0.5 0.5 0.5 0.5 0.5 0.5 0.5 0.5 0.5 0.5 0.5 0.5 0.5 0.5 0.5 0.5 0.5 0.5 0.5 0.5 0.5 0.5 0.5 0.5 0.5 0.5 0.5 0.5 0.5 0.5 0.5 0.5 0.5 0.394412 0.605588 0.695778 0.304222 0.5 0.5 0.5 0.5 0.5 0.5 0.5 0.5 0.695017 0.304983 0.708612 0.291388 0.641882 0.35811800000000005 0.12545 0.8745499999999999 0.421783 0.578217 0.751003 0.24899700000000002 0.986215 0.013785000000000047 0.483565 0.516435 0.5 0.5 0.5 0.5 0.5 0.5 0.5 0.5 0.5 0.5 0.5 0.5 0.5 0.5 0.5 0.5 0.386694 0.613306 0.739728 0.26027199999999995 0.801888 0.19811199999999995 0.781107 0.218893 0.5 0.5 0.5 0.5 0.5 0.5 0.5 0.5 0.5 0.5 0.5 0.5 0.5 0.5 0.5 0.5 0.809007 0.19099299999999997 0.072728 0.927272 0.708208 0.29179200000000005 0.795222 0.20477800000000002
-1 2 0
1 -2 0
-2 3 0
2 -3 0
-3 -105 4 0
-3 105 -4 0
3 -106 4 0
3 106 -4 0
-4 -5 0
4 5 0
-5 -6 0
5 6 0
-6 -7 0
6 7 0
-7 -8 0
7 8 0
-8 -9 0
8 9 0
-9 10 0
9 -10 0
-1 -119 11 0
-1 119 -11 0
1 -120 11 0
1 120 -11 0
-11 -2 -121 12 0
-11 -2 121 -12 0
-11 2 -122 12 0
-11 2 122 -12 0
11 -2 -123 12 0
11 -2 123 -12 0
11 2 -124 12 0
11 2 124 -12 0
-12 -3 13 0
-12 3 -13 0
12 -3 13 0
12 3 -13 0
-13 -4 14 0
-13 4 14 0
13 -4 14 0
13 4 -14 0
-14 -5 15 0
-14 5 -15 0
14 -5 15 0
14 5 15 0
-15 -6 16 0
-15 6 16 0
15 -6 16 0
15 6 -16 0
-16 -7 -17 0
-16 7 17 0
16 -7 -17 0
16 7 17 0
-17 -8 18 0
-17 8 -18 0
17 -8 18 0
17 8 18 0
-18 -9 -149 19 0
-18 -9 149 -19 0
-18 9 -150 19 0
-18 9 150 -19 0
18 -9 -151 19 0
18 -9 151 -19 0
18 9 -152 19 0
18 9 152 -19 0
-19 -10 -20 0
-19 10 -20 0
19 -10 20 0
19 10 -20 0
-11 -21 0
11 21 0
-21 -12 22 0
-21 12 22 0
21 -12 -22 0
21 12 22 0
-22 -13 23 0
-22 13 -23 0
22 -13 23 0
22 13 23 0
-23 -14 -24 0
-23 14 -24 0
23 -14 -24 0
23 14 24 0
-24 -15 25 0
-24 15 -25 0
24 -15 25 0
24 15 25 0
-25 -16 -26 0
-25 16 -26 0
25 -16 26 0
25 16 -26 0
-26 -17 -179 27 0
-26 -17 179 -27 0
-26 17 -180 27 0
-26 17 180 -27 0
26 -17 -181 27 0
26 -17 181 -27 0
26 17 -182 27 0
26 17 182 -27 0
-27 -18 28 0
-27 18 28 0
27 -18 -28 0
27 18 -28 0
-28 -19 29 0
-28 19 29 0
28 -19 -29 0
28 19 29 0
-29 -20 -30 0
-29 20 30 0
29 -20 -30 0
29 20 30 0
-21 31 0
21 -31 0
-31 -22 -197 32 0
-31 -22 197 -32 0
-31 22 -198 32 0
-31 22 198 -32 0
31 -22 -199 32 0
31 -22 199 -32 0
31 22 -200 32 0
31 22 200 -32 0
-32 -23 33 0
-32 23 33 0
32 -23 33 0
32 23 -33 0
-33 -24 34 0
-33 24 34 0
33 -24 -34 0
33 24 -34 0
-34 -25 -35 0
-34 25 35 0
34 -25 35 0
34 25 35 0
-35 -26 36 0
-35 26 36 0
35 -26 -36 0
35 26 36 0
-36 -27 -217 37 0
-36 -27 217 -37 0
-36 27 -218 37 0
-36 27 218 -37 0
36 -27 -219 37 0
36 -27 219 -37 0
36 27 -220 37 0
36 27 220 -37 0
-37 -28 -221 38 0
-37 -28 221 -38 0
-37 28 -222 38 0
-37 28 222 -38 0
37 -28 -223 38 0
37 -28 223 -38 0
37 28 -224 38 0
37 28 224 -38 0
-38 -29 39 0
-38 29 -39 0
38 -29 39 0
38 29 -39 0
-39 -30 -40 0
-39 30 40 0
39 -30 -40 0
39 30 -40 0
-31 41 0
31 -41 0
-41 -32 -235 42 0
-41 -32 235 -42 0
-41 32 -236 42 0
-41 32 236 -42 0
41 -32 -237 42 0
41 -32 237 -42 0
41 32 -238 42 0
41 32 238 -42 0
-42 -33 43 0
-42 33 43 0
42 -33 -43 0
42 33 -43 0
-43 -34 -243 44 0
-43 -34 243 -44 0
-43 34 -244 44 0
-43 34 244 -44 0
43 -34 -245 44 0
43 -34 245 -44 0
43 34 -246 44 0
43 34 246 -44 0
-44 -35 -45 0
-44 35 -45 0
44 -35 45 0
44 35 45 0
-45 -36 -251 46 0
-45 -36 251 -46 0
-45 36 -252 46 0
-45 36 252 -46 0
45 -36 -253 46 0
45 -36 253 -46 0
45 36 -254 46 0
45 36 254 -46 0
-46 -37 -47 0
-46 37 47 0
46 -37 47 0
46 37 -47 0
-47 -38 -259 48 0
-47 -38 259 -48 0
-47 38 -260 48 0
-47 38 260 -48 0
47 -38 -261 48 0
47 -38 261 -48 0
47 38 -262 48 0
47 38 262 -48 0
-48 -39 49 0
-48 39 -49 0
48 -39 -49 0
48 39 49 0
-49 -40 -267 50 0
-49 -40 267 -50 0
-49 40 -268 50 0
-49 40 268 -50 0
49 -40 -269 50 0
49 -40 269 -50 0
49 40 -270 50 0
49 40 270 -50 0
-41 51 0
41 -51 0
-51 -42 -273 52 0
-51 -42 273 -52 0
-51 42 -274 52 0
-51 42 274 -52 0
51 -42 -275 52 0
51 -42 275 -52 0
51 42 -276 52 0
51 42 276 -52 0
-52 -43 -53 0
-52 43 -53 0
52 -43 53 0
52 43 53 0
-53 -44 -54 0
-53 44 -54 0
53 -44 54 0
53 44 54 0
-54 -45 55 0
-54 45 55 0
54 -45 -55 0
54 45 55 0
-55 -46 -56 0
-55 46 56 0
55 -46 -56 0
55 46 56 0
-56 -47 -57 0
-56 47 57 0
56 -47 57 0
56 47 57 0
-57 -48 -297 58 0
-57 -48 297 -58 0
-57 48 -298 58 0
-57 48 298 -58 0
57 -48 -299 58 0
57 -48 299 -58 0
57 48 -300 58 0
57 48 300 -58 0
-58 -49 59 0
-58 49 59 0
58 -49 -59 0
58 49 -59 0
-59 -50 60 0
-59 50 -60 0
59 -50 -60 0
59 50 -60 0
-51 61 0
51 -61 0
-61 -52 -311 62 0
-61 -52 311 -62 0
-61 52 -312 62 0
-61 52 312 -62 0
61 -52 -313 62 0
61 -52 313 -62 0
61 52 -314 62 0
61 52 314 -62 0
-62 -53 -63 0
-62 53 -63 0
62 -53 63 0
62 53 63 0
-63 -54 -64 0
-63 54 -64 0
63 -54 -64 0
63 54 64 0
-64 -55 -323 65 0
-64 -55 323 -65 0
-64 55 -324 65 0
-64 55 324 -65 0
64 -55 -325 65 0
64 -55 325 -65 0
64 55 -326 65 0
64 55 326 -65 0
-65 -56 -66 0
-65 56 -66 0
65 -56 66 0
65 56 -66 0
-66 -57 67 0
-66 57 -67 0
66 -57 -67 0
66 57 67 0
-67 -58 -68 0
-67 58 -68 0
67 -58 68 0
67 58 68 0
-68 -59 69 0
-68 59 69 0
68 -59 -69 0
68 59 -69 0
-69 -60 70 0
-69 60 70 0
69 -60 70 0
69 60 -70 0
-61 71 0
61 -71 0
-71 -62 -72 0
-71 62 -72 0
71 -62 72 0
71 62 72 0
-72 -63 73 0
-72 63 -73 0
72 -63 -73 0
72 63 -73 0
-73 -64 74 0
-73 64 -74 0
73 -64 -74 0
73 64 74 0
-74 -65 -75 0
-74 65 -75 0
74 -65 75 0
74 65 -75 0
-75 -66 76 0
-75 66 76 0
75 -66 -76 0
75 66 -76 0
-76 -67 -369 77 0
-76 -67 369 -77 0
-76 67 -370 77 0
-76 67 370 -77 0
76 -67 -371 77 0
76 -67 371 -77 0
76 67 -372 77 0
76 67 372 -77 0
-77 -68 -373 78 0
-77 -68 373 -78 0
-77 68 -374 78 0
-77 68 374 -78 0
77 -68 -375 78 0
77 -68 375 -78 0
77 68 -376 78 0
77 68 376 -78 0
-78 -69 -79 0
-78 69 -79 0
78 -69 79 0
78 69 -79 0
-79 -70 80 0
-79 70 80 0
79 -70 -80 0
79 70 -80 0
-71 -385 81 0
-71 385 -81 0
71 -386 81 0
71 386 -81 0
-81 -72 -387 82 0
-81 -72 387 -82 0
-81 72 -388 82 0
-81 72 388 -82 0
81 -72 -389 82 0
81 -72 389 -82 0
81 72 -390 82 0
81 72 390 -82 0
-82 -73 -83 0
-82 73 83 0
82 -73 83 0
82 73 83 0
-83 -74 -84 0
-83 74 -84 0
83 -74 84 0
83 74 -84 0
-84 -75 -399 85 0
-84 -75 399 -85 0
-84 75 -400 85 0
-84 75 400 -85 0
84 -75 -401 85 0
84 -75 401 -85 0
84 75 -402 85 0
84 75 402 -85 0
-85 -76 -86 0
-85 76 86 0
85 -76 86 0
85 76 -86 0
-86 -77 87 0
-86 77 -87 0
86 -77 87 0
86 77 -87 0
-87 -78 -88 0
-87 78 -88 0
87 -78 88 0
87 78 -88 0
-88 -79 -89 0
-88 79 89 0
88 -79 89 0
88 79 -89 0
-89 -80 90 0
-89 80 -90 0
89 -80 -90 0
89 80 90 0
-81 -423 91 0
-81 423 -91 0
81 -424 91 0
81 424 -91 0
-91 -82 92 0
-91 82 92 0
91 -82 92 0
91 82 -92 0
-92 -83 -429 93 0
-92 -83 429 -93 0
-92 83 -430 93 0
-92 83 430 -93 0
92 -83 -431 93 0
92 -83 431 -93 0
92 83 -432 93 0
92 83 432 -93 0
-93 -84 -433 94 0
-93 -84 433 -94 0
-93 84 -434 94 0
-93 84 434 -94 0
93 -84 -435 94 0
93 -84 435 -94 0
93 84 -436 94 0
93 84 436 -94 0
-94 -85 95 0
-94 85 -95 0
94 -85 95 0
94 85 95 0
-95 -86 -96 0
-95 86 96 0
95 -86 96 0
95 86 -96 0
-96 -87 -445 97 0
-96 -87 445 -97 0
-96 87 -446 97 0
-96 87 446 -97 0
96 -87 -447 97 0
96 -87 447 -97 0
96 87 -448 97 0
96 87 448 -97 0
-97 -88 98 0
-97 88 -98 0
97 -88 -98 0
97 88 -98 0
-98 -89 -99 0
-98 89 99 0
98 -89 99 0
98 89 -99 0
-99 -90 -457 100 0
-99 -90 457 -100 0
-99 90 -458 100 0
-99 90 458 -100 0
99 -90 -459 100 0
99 -90 459 -100 0
99 90 -460 100 0
99 90 460 -100 0
100 0
