data/benchmarks/bayes/75-10-2-q.gr
p tw 460 553
12 123
38 261
7 17
75 399
67 68
49 270
99 100
67 77
83 430
8 9
8 18
40 50
76 372
41 42
73 74
41 51
25 34
77 373
73 83
17 179
14 15
14 24
74 75
36 219
74 84
46 251
100 460
4 105
15 16
28 224
47 48
15 25
47 57
59 68
42 235
72 388
84 399
55 326
48 49
93 429
48 58
80 90
32 199
52 275
81 82
33 42
81 91
34 245
18 151
45 254
22 23
84 93
11 121
22 32
38 224
66 75
55 56
38 260
7 16
55 65
49 269
58 67
93 433
40 49
76 371
48 300
68 376
62 311
73 82
32 41
82 387
14 23
100 459
65 74
27 218
47 56
75 402
6 15
72 387
31 197
21 22
21 31
80 89
39 48
32 198
54 55
52 274
96 448
9 151
54 64
34 244
45 253
17 182
11 120
38 223
87 88
92 432
87 97
28 29
28 38
88 89
65 325
88 98
29 30
40 268
61 62
93 432
61 71
76 370
2 3
2 12
62 63
37 217
94 95
99 457
3 4
71 386
35 36
35 45
95 96
100 458
2 124
36 37
68 69
27 217
68 78
58 299
69 70
41 237
78 375
69 79
61 313
96 447
37 221
9 150
54 63
13 22
34 243
62 314
43 44
82 390
43 53
38 222
92 431
36 252
87 96
47 261
46 55
76 77
28 37
76 86
65 324
48 262
85 400
79 88
31 200
40 267
67 370
87 446
20 29
44 246
2 11
53 62
71 385
35 44
27 180
9 10
86 95
2 123
57 297
9 19
68 77
3 106
27 36
42 43
58 298
84 436
42 52
41 236
78 374
61 312
60 69
75 76
96 446
37 220
9 149
75 85
51 276
16 17
16 26
92 430
36 251
90 460
47 260
49 50
49 59
65 323
85 399
42 276
82 83
67 369
82 92
87 445
22 199
23 24
23 33
83 84
24 25
56 57
56 66
27 179
81 388
64 326
57 58
89 90
94 434
89 99
30 40
58 297
84 435
78 373
31 32
32 235
43 244
52 311
26 182
34 43
19 152
64 65
12 122
90 459
5 6
91 424
67 76
83 429
97 98
57 300
8 17
50 270
42 275
82 91
22 198
77 372
97 448
36 218
74 83
28 223
56 65
81 387
15 24
94 433
55 325
89 98
48 57
63 64
63 73
4 5
4 14
18 150
77 376
43 243
22 31
37 38
19 151
46 254
37 47
12 121
38 259
55 64
90 458
49 268
91 423
42 238
70 80
84 402
1 120
29 39
11 12
50 269
48 299
11 21
42 274
68 375
62 72
44 45
77 371
44 54
32 238
97 447
3 13
52 314
11 124
36 217
28 222
36 46
96 97
18 19
75 401
18 28
83 432
55 324
93 436
32 197
10 20
52 273
77 375
18 149
45 252
17 181
11 119
85 86
46 253
49 267
88 97
42 237
72 390
77 78
29 38
77 87
93 431
76 369
48 298
68 374
62 71
77 370
51 52
97 446
3 12
51 61
11 123
100 457
36 45
38 262
75 400
55 323
69 78
93 435
10 19
25 26
62 313
25 35
45 251
17 180
82 389
99 460
43 52
38 221
17 18
17 27
4 106
27 220
76 85
48 261
42 236
31 199
72 389
50 60
77 86
93 430
48 297
44 245
32 200
68 373
83 93
52 276
37 224
34 246
24 34
84 85
84 94
2 122
9 18
57 67
81 424
3 105
58 59
58 68
42 51
40 270
41 235
90 100
93 434
61 311
31 41
91 92
96 445
37 219
75 84
62 312
51 275
32 33
99 459
32 42
16 25
82 388
64 74
92 429
47 259
5 15
65 66
17 26
65 75
49 58
27 219
6 7
48 260
6 16
31 198
98 99
50 59
39 40
44 244
39 49
23 32
83 92
37 223
9 152
72 73
24 33
72 82
64 325
36 254
2 121
57 66
81 423
65 326
85 402
30 39
84 434
40 269
90 99
67 372
87 448
37 218
26 181
51 274
99 458
64 73
27 182
38 39
5 14
38 48
57 299
48 259
71 72
71 81
58 300
41 238
78 376
12 13
22 197
12 22
44 243
61 314
37 222
13 14
45 46
13 23
45 55
72 81
81 386
64 324
36 253
46 47
78 79
47 262
46 56
78 88
19 20
19 29
79 80
85 401
79 89
63 72
84 433
67 371
52 53
87 447
20 30
4 13
52 62
26 180
53 54
51 273
19 150
53 63
37 46
85 95
27 181
26 27
81 390
90 457
26 36
86 87
38 47
86 96
70 79
57 298
94 436
84 401
1 119
27 28
50 268
27 37
42 273
12 21
60 70
44 53
32 237
43 246
1 2
52 313
1 11
93 94
45 54
28 221
81 385
12 124
64 323
18 27
78 87
83 431
19 28
22 200
77 374
52 61
26 179
36 220
19 149
46 252
85 94
81 389
59 60
26 35
59 69
94 435
84 400
50 267
92 93
33 34
33 43
77 369
18 152
32 236
97 445
43 245
52 312
11 122
34 35
66 67
34 44
66 76
7 8
